MARKOV
227
 2 2 2 2 2 2 2 2 2 2 2 2 2 2 2 2 2 2 2 2 2 2 2 2 2 2 2 2 2 2 2 2 2 2 2 2 2 2 2 2 2 2 2 2 2 2 2 2 2 2 2 2 2 2 2 2 2 2 2 2 2 2 2 2 2 2 2 2 2 2 2 2 2 2 2 2 2 2 2 2 2 2 2 2 2 2 2 2 2 2 2 2 2 2 2 2 2 2 2 2 2 2 2 2 2 2 2 2 2 2 2 2 2 2 2 2 2 2 2 2 2 2 2 2 2 2 2 2 2 2 2 2 2 2 2 2 2 2 2 2 2 2 2 2 2 2 2 2 2 2 2 2 2 2 2 2 2 2 2 2 2 2 2 2 2 2 2 2 2 2 2 2 2 2 2 2 2 2 2 2 2 2 2 2 2 2 2 2 2 2 2 2 2 2 2 2 2 2 2 2 2 2 2 2 2 2 2 2 2 2 2 2 2 2 2 2 2 2 2 2 2 2 2 2 2 2 2
845
1	0 
1	1 
1	2 
1	3 
1	4 
1	5 
1	6 
1	7 
1	8 
1	9 
1	10 
1	11 
1	12 
1	13 
1	14 
1	15 
1	16 
1	17 
1	18 
1	19 
1	20 
1	21 
1	22 
1	23 
1	24 
1	25 
1	26 
1	27 
1	28 
1	29 
1	30 
1	31 
1	32 
1	33 
1	34 
1	35 
1	36 
1	37 
1	38 
1	39 
1	40 
1	41 
1	42 
1	43 
1	44 
1	45 
1	46 
1	47 
1	48 
1	49 
1	50 
1	51 
1	52 
1	53 
1	54 
1	55 
1	56 
1	57 
1	58 
1	59 
1	60 
1	61 
1	62 
1	63 
1	64 
1	65 
1	66 
1	67 
1	68 
1	69 
1	70 
1	71 
1	72 
1	73 
1	74 
1	75 
1	76 
1	77 
1	78 
1	79 
1	80 
1	81 
1	82 
1	83 
1	84 
1	85 
1	86 
1	87 
1	88 
1	89 
1	90 
1	91 
1	92 
1	93 
1	94 
1	95 
1	96 
1	97 
1	98 
1	99 
1	100 
1	101 
1	102 
1	103 
1	104 
1	105 
1	106 
1	107 
1	108 
1	109 
1	110 
1	111 
1	112 
1	113 
1	114 
1	115 
1	116 
1	117 
1	118 
1	119 
1	120 
1	121 
1	122 
1	123 
1	124 
1	125 
1	126 
1	127 
1	128 
1	129 
1	130 
1	131 
1	132 
1	133 
1	134 
1	135 
1	136 
1	137 
1	138 
1	139 
1	140 
1	141 
1	142 
1	143 
1	144 
1	145 
1	146 
1	147 
1	148 
1	149 
1	150 
1	151 
1	152 
1	153 
1	154 
1	155 
1	156 
1	157 
1	158 
1	159 
1	160 
1	161 
1	162 
1	163 
1	164 
1	165 
1	166 
1	167 
1	168 
1	169 
1	170 
1	171 
1	172 
1	173 
1	174 
1	175 
1	176 
1	177 
1	178 
1	179 
1	180 
1	181 
1	182 
1	183 
1	184 
1	185 
1	186 
1	187 
1	188 
1	189 
1	190 
1	191 
1	192 
1	193 
1	194 
1	195 
1	196 
1	197 
1	198 
1	199 
1	200 
1	201 
1	202 
1	203 
1	204 
1	205 
1	206 
1	207 
1	208 
1	209 
1	210 
1	211 
1	212 
1	213 
1	214 
1	215 
1	216 
1	217 
1	218 
1	219 
1	220 
1	221 
1	222 
1	223 
1	224 
1	225 
1	226 
2	1 2 
2	1 4 
2	1 85 
2	1 186 
2	1 187 
2	2 3 
2	2 4 
2	2 113 
2	3 4 
2	3 87 
2	3 113 
2	3 178 
2	3 181 
2	4 85 
2	4 87 
2	5 6 
2	5 7 
2	5 21 
2	5 22 
2	5 145 
2	5 157 
2	6 7 
2	6 8 
2	6 69 
2	6 143 
2	6 145 
2	7 8 
2	7 22 
2	8 67 
2	8 69 
2	9 12 
2	9 117 
2	9 200 
2	9 201 
2	9 204 
2	10 11 
2	10 12 
2	10 149 
2	10 151 
2	10 203 
2	11 12 
2	11 136 
2	11 151 
2	11 204 
2	12 200 
2	12 203 
2	12 204 
2	13 14 
2	13 15 
2	13 16 
2	13 17 
2	13 18 
2	14 16 
2	14 19 
2	14 23 
2	14 125 
2	15 18 
2	15 94 
2	16 17 
2	16 125 
2	16 128 
2	17 18 
2	17 112 
2	17 128 
2	17 189 
2	18 95 
2	18 189 
2	19 20 
2	19 23 
2	20 21 
2	20 22 
2	20 23 
2	21 22 
2	21 23 
2	21 157 
2	21 161 
2	23 125 
2	23 126 
2	23 161 
2	24 26 
2	24 38 
2	24 40 
2	24 44 
2	24 46 
2	24 138 
2	25 27 
2	25 29 
2	25 43 
2	26 27 
2	26 28 
2	26 40 
2	26 42 
2	26 46 
2	27 28 
2	27 29 
2	27 41 
2	27 42 
2	28 29 
2	28 30 
2	28 37 
2	28 40 
2	29 30 
2	29 32 
2	30 31 
2	30 32 
2	30 37 
2	30 39 
2	31 32 
2	31 33 
2	31 39 
2	32 33 
2	34 36 
2	34 45 
2	34 208 
2	34 209 
2	34 212 
2	35 36 
2	35 41 
2	35 43 
2	35 210 
2	36 41 
2	36 42 
2	36 45 
2	36 210 
2	36 212 
2	37 39 
2	37 40 
2	37 165 
2	37 169 
2	38 40 
2	38 138 
2	38 164 
2	38 216 
2	39 169 
2	40 164 
2	40 165 
2	41 42 
2	41 43 
2	42 45 
2	42 46 
2	44 45 
2	44 46 
2	44 138 
2	44 208 
2	45 46 
2	45 208 
2	47 48 
2	47 49 
2	47 53 
2	47 83 
2	47 149 
2	48 49 
2	48 149 
2	48 199 
2	48 203 
2	49 53 
2	50 51 
2	50 52 
2	50 82 
2	50 84 
2	51 53 
2	51 82 
2	51 83 
2	52 84 
2	53 83 
2	54 55 
2	54 56 
2	54 86 
2	54 89 
2	54 133 
2	54 183 
2	54 184 
2	55 56 
2	55 57 
2	55 183 
2	55 198 
2	56 57 
2	56 89 
2	56 182 
2	57 179 
2	57 182 
2	57 196 
2	57 198 
2	58 59 
2	58 60 
2	58 135 
2	58 142 
2	58 144 
2	58 205 
2	58 206 
2	59 60 
2	59 62 
2	59 148 
2	59 206 
2	60 61 
2	60 62 
2	60 142 
2	61 62 
2	61 68 
2	61 69 
2	61 142 
2	61 143 
2	62 68 
2	62 148 
2	62 150 
2	63 64 
2	63 66 
2	63 139 
2	63 140 
2	63 207 
2	64 65 
2	64 66 
2	64 140 
2	64 208 
2	65 66 
2	65 208 
2	65 209 
2	66 207 
2	66 209 
2	67 68 
2	67 69 
2	67 70 
2	68 69 
2	68 70 
2	68 150 
2	69 143 
2	70 150 
2	70 213 
2	71 74 
2	71 75 
2	71 80 
2	71 81 
2	72 74 
2	72 76 
2	72 78 
2	72 81 
2	73 76 
2	73 77 
2	73 193 
2	73 195 
2	73 212 
2	74 75 
2	74 76 
2	74 77 
2	74 81 
2	75 77 
2	75 211 
2	76 77 
2	76 78 
2	76 193 
2	77 211 
2	77 212 
2	78 81 
2	78 96 
2	78 191 
2	78 193 
2	79 80 
2	79 81 
2	79 97 
2	80 81 
2	81 96 
2	81 97 
2	82 83 
2	82 84 
2	82 214 
2	82 215 
2	83 147 
2	83 149 
2	83 215 
2	84 213 
2	84 214 
2	85 87 
2	85 90 
2	85 187 
2	85 188 
2	86 88 
2	86 89 
2	86 119 
2	86 133 
2	87 89 
2	87 90 
2	87 181 
2	87 182 
2	88 89 
2	88 90 
2	88 117 
2	88 118 
2	88 119 
2	89 90 
2	89 182 
2	90 118 
2	90 188 
2	91 92 
2	91 95 
2	91 96 
2	91 190 
2	91 191 
2	92 93 
2	92 94 
2	92 95 
2	92 96 
2	92 97 
2	93 94 
2	93 97 
2	94 95 
2	95 189 
2	95 190 
2	96 97 
2	96 191 
2	98 100 
2	98 103 
2	98 153 
2	98 156 
2	98 201 
2	98 202 
2	99 101 
2	99 102 
2	100 101 
2	100 102 
2	100 103 
2	100 152 
2	100 156 
2	101 102 
2	101 103 
2	102 152 
2	102 154 
2	103 202 
2	104 106 
2	104 107 
2	104 158 
2	104 160 
2	104 174 
2	105 106 
2	105 107 
2	105 124 
2	105 185 
2	105 197 
2	105 198 
2	106 107 
2	106 158 
2	106 185 
2	106 226 
2	107 122 
2	107 124 
2	107 174 
2	108 110 
2	108 111 
2	108 112 
2	108 189 
2	108 192 
2	109 110 
2	109 160 
2	109 174 
2	109 176 
2	110 111 
2	110 112 
2	110 127 
2	110 160 
2	110 176 
2	110 177 
2	111 177 
2	111 192 
2	111 207 
2	112 127 
2	112 128 
2	112 189 
2	113 114 
2	113 178 
2	114 115 
2	114 116 
2	114 178 
2	114 180 
2	115 116 
2	115 129 
2	115 171 
2	115 180 
2	115 221 
2	116 171 
2	117 118 
2	117 119 
2	117 120 
2	117 153 
2	117 201 
2	117 204 
2	118 153 
2	118 156 
2	118 188 
2	119 120 
2	119 133 
2	119 134 
2	120 134 
2	120 136 
2	120 204 
2	121 122 
2	121 123 
2	121 139 
2	121 141 
2	121 175 
2	121 217 
2	122 123 
2	122 124 
2	122 174 
2	122 175 
2	123 124 
2	123 131 
2	123 217 
2	123 220 
2	124 131 
2	124 197 
2	125 126 
2	125 128 
2	126 127 
2	126 128 
2	126 159 
2	126 161 
2	127 128 
2	127 159 
2	127 160 
2	129 130 
2	129 132 
2	129 180 
2	129 218 
2	129 221 
2	130 131 
2	130 132 
2	130 218 
2	130 220 
2	131 132 
2	131 197 
2	131 220 
2	132 179 
2	132 180 
2	132 196 
2	132 197 
2	133 134 
2	133 135 
2	133 184 
2	134 135 
2	134 136 
2	134 205 
2	135 144 
2	135 184 
2	135 205 
2	135 224 
2	136 151 
2	136 204 
2	136 205 
2	137 138 
2	137 141 
2	137 164 
2	137 166 
2	137 216 
2	137 217 
2	137 222 
2	138 140 
2	138 141 
2	138 208 
2	138 216 
2	139 140 
2	139 141 
2	139 175 
2	139 177 
2	139 207 
2	140 141 
2	140 208 
2	141 217 
2	142 143 
2	142 144 
2	142 145 
2	142 146 
2	143 145 
2	144 146 
2	144 223 
2	144 224 
2	145 146 
2	145 157 
2	145 225 
2	146 223 
2	146 225 
2	147 148 
2	147 149 
2	147 151 
2	147 206 
2	147 215 
2	148 150 
2	148 206 
2	148 215 
2	149 151 
2	149 203 
2	150 213 
2	150 214 
2	150 215 
2	151 205 
2	151 206 
2	152 154 
2	152 155 
2	152 156 
2	153 156 
2	153 201 
2	154 155 
2	154 186 
2	155 156 
2	155 187 
2	155 188 
2	156 188 
2	157 161 
2	157 162 
2	157 225 
2	158 159 
2	158 160 
2	158 162 
2	158 226 
2	159 160 
2	159 161 
2	159 162 
2	161 162 
2	162 225 
2	162 226 
2	163 165 
2	163 167 
2	163 168 
2	163 169 
2	163 170 
2	164 165 
2	164 166 
2	164 168 
2	164 216 
2	165 168 
2	165 169 
2	166 167 
2	166 168 
2	166 173 
2	166 219 
2	166 222 
2	167 168 
2	167 170 
2	167 173 
2	170 172 
2	170 173 
2	171 172 
2	171 173 
2	171 221 
2	172 173 
2	173 219 
2	173 221 
2	174 175 
2	174 176 
2	175 176 
2	175 177 
2	176 177 
2	177 207 
2	178 179 
2	178 180 
2	178 181 
2	179 180 
2	179 181 
2	179 182 
2	179 196 
2	181 182 
2	183 184 
2	183 185 
2	183 198 
2	183 223 
2	183 224 
2	184 224 
2	185 198 
2	185 223 
2	185 226 
2	186 187 
2	187 188 
2	189 190 
2	189 192 
2	190 191 
2	190 192 
2	191 192 
2	191 193 
2	191 194 
2	192 194 
2	192 207 
2	193 194 
2	193 195 
2	194 195 
2	194 207 
2	194 209 
2	195 209 
2	195 212 
2	196 197 
2	196 198 
2	197 198 
2	199 200 
2	199 203 
2	200 201 
2	200 202 
2	200 203 
2	201 202 
2	205 206 
2	207 209 
2	208 209 
2	209 212 
2	210 211 
2	210 212 
2	211 212 
2	213 214 
2	214 215 
2	217 218 
2	217 220 
2	217 222 
2	218 219 
2	218 220 
2	218 221 
2	218 222 
2	219 221 
2	219 222 
2	223 224 
2	223 225 
2	223 226 
2	225 226 
0	

2
 0.252912 1
2
 1 0.153148
2
 1 0.538608
2
 1 0.353799
2
 1 0.537233
2
 0.867956 1
2
 0.82617 1
2
 1 0.604319
2
 0.629804 1
2
 1 0.171626
2
 1 0.0576731
2
 1 0.105778
2
 1 0.0728894
2
 1 0.1631
2
 1 0.499365
2
 1 0.676919
2
 1 0.764921
2
 0.312842 1
2
 0.880716 1
2
 1 0.513495
2
 1 0.247683
2
 1 0.601915
2
 1 0.281058
2
 1 0.313635
2
 1 0.464108
2
 1 0.0287496
2
 1 0.163913
2
 1 0.0601822
2
 1 0.0649856
2
 1 0.0292607
2
 1 0.0738334
2
 1 0.0318606
2
 1 0.033956
2
 1 0.0311622
2
 1 0.10008
2
 1 0.0416782
2
 1 0.0782461
2
 1 0.0633426
2
 1 0.663951
2
 1 0.0364714
2
 1 0.0771909
2
 1 0.0534752
2
 1 0.122603
2
 1 0.0408669
2
 1 0.658047
2
 1 0.103036
2
 1 0.308736
2
 1 0.2187
2
 1 0.0521622
2
 1 0.0557555
2
 1 0.0407836
2
 1 0.0741773
2
 1 0.0318916
2
 1 0.0543092
2
 0.488678 1
2
 0.176701 1
2
 0.552996 1
2
 0.314559 1
2
 0.536693 1
2
 1 0.605431
2
 0.517075 1
2
 1 0.50701
2
 0.820163 1
2
 0.248361 1
2
 0.177838 1
2
 0.268825 1
2
 0.196769 1
2
 0.938835 1
2
 1 0.974738
2
 0.987264 1
2
 1 0.847641
2
 1 0.0482932
2
 1 0.0784757
2
 1 0.0591279
2
 1 0.0974283
2
 1 0.0646554
2
 1 0.136375
2
 1 0.0837902
2
 1 0.163968
2
 1 0.292316
2
 1 0.0781763
2
 1 0.075993
2
 1 0.401588
2
 1 0.564101
2
 1 0.442908
2
 0.6851 1
2
 0.32084 1
2
 1 0.251756
2
 0.329301 1
2
 1 0.553458
2
 0.665625 1
2
 1 0.04366
2
 1 0.215291
2
 1 0.0903339
2
 0.942079 1
2
 1 0.469971
2
 1 0.187373
2
 1 0.0729108
2
 1 0.110232
2
 1 0.044943
2
 1 0.0937342
2
 1 0.0395049
2
 1 0.135992
2
 1 0.0658047
2
 0.434377 1
2
 0.453603 1
2
 0.327898 1
2
 0.179242 1
2
 1 0.766807
2
 0.181967 1
2
 0.14609 1
2
 0.251979 1
2
 0.106957 1
2
 1 0.487419
2
 0.790531 1
2
 0.710777 1
2
 0.390278 1
2
 1 0.495992
2
 1 0.352291
2
 0.975128 1
2
 1 0.544262
2
 0.0813624 1
2
 0.142166 1
2
 0.194132 1
2
 0.308228 1
2
 0.809781 1
2
 0.673123 1
2
 0.67612 1
2
 0.476398 1
2
 0.276917 1
2
 1 0.831082
2
 0.355671 1
2
 0.226657 1
2
 0.785764 1
2
 0.51812 1
2
 0.651127 1
2
 0.501916 1
2
 0.235294 1
2
 0.295672 1
2
 0.218838 1
2
 1 0.452522
2
 0.647562 1
2
 0.369031 1
2
 0.466918 1
2
 0.40577 1
2
 0.337236 1
2
 0.5742 1
2
 1 0.865228
2
 1 0.323801
2
 1 0.653038
2
 1 0.51419
2
 1 0.358886
2
 1 0.280985
2
 1 0.271237
2
 1 0.298255
2
 1 0.143559
2
 1 0.566602
2
 0.547708 1
2
 0.268897 1
2
 0.256192 1
2
 0.12084 1
2
 0.254289 1
2
 0.621758 1
2
 1 0.0726117
2
 1 0.16104
2
 1 0.0743405
2
 1 0.542492
2
 1 0.128492
2
 1 0.137141
2
 1 0.0604358
2
 1 0.106653
2
 1 0.966694
2
 1 0.258933
2
 1 0.79753
2
 0.129805 1
2
 0.0551317 1
2
 0.311676 1
2
 0.238112 1
2
 0.587723 1
2
 0.48093 1
2
 0.303752 1
2
 1 0.652312
2
 0.718368 1
2
 0.219719 1
2
 0.468671 1
2
 0.501945 1
2
 1 0.137022
2
 0.999456 1
2
 1 0.225953
2
 0.725094 1
2
 1 0.444247
2
 0.927677 1
2
 0.355663 1
2
 1 0.342268
2
 1 0.689674
2
 1 0.679573
2
 0.705311 1
2
 0.689861 1
2
 0.225638 1
2
 1 0.060101
2
 1 0.0489309
2
 1 0.148238
2
 1 0.074172
2
 1 0.0539712
2
 1 0.494238
2
 0.902311 1
2
 1 0.611
2
 0.320039 1
2
 1 0.672897
2
 0.887154 1
2
 1 0.0824394
2
 1 0.0612051
2
 1 0.0392457
2
 1 0.0553725
2
 1 0.0675293
2
 1 0.0658928
2
 1 0.562964
2
 0.107862 1
2
 0.217723 1
2
 0.616153 1
2
 0.126559 1
2
 0.767964 1
2
 0.233486 1
2
 0.310452 1
2
 0.303891 1
2
 0.575193 1
2
 0.25526 1
4
 0.950027 0.242904 0.242904 1
4
 0.949534 0.244561 0.244561 1
4
 0.947452 0.243918 0.243918 1
4
 0.943111 0.239024 0.239024 1
4
 0.944049 0.241267 0.241267 1
4
 0.955978 0.247967 0.247967 1
4
 0.953365 0.246754 0.246754 1
4
 0.957773 0.247689 0.247689 1
4
 0.955481 0.249659 0.249659 1
4
 0.95755 0.253326 0.253326 1
4
 0.959899 0.250605 0.250605 1
4
 0.962157 0.254397 0.254397 1
4
 0.96021 0.254083 0.254083 1
4
 0.950781 0.247784 0.247784 1
4
 0.954933 0.252087 0.252087 1
4
 0.987782 0.318385 0.318385 1
4
 0.991808 0.323856 0.323856 1
4
 0.993928 0.322395 0.322395 1
4
 0.994425 0.325533 0.325533 1
4
 0.986623 0.313559 0.313559 1
4
 0.990096 0.316783 0.316783 1
4
 0.989449 0.322863 0.322863 1
4
 0.985841 0.320274 0.320274 1
4
 0.981756 0.314644 0.314644 1
4
 0.982349 0.31273 0.31273 1
4
 0.984276 0.312598 0.312598 1
4
 0.989859 0.325778 0.325778 1
4
 0.996103 0.330112 0.330112 1
4
 0.98257 0.320351 0.320351 1
4
 0.982163 0.317484 0.317484 1
4
 0.940494 0.256138 0.256138 1
4
 0.943289 0.255607 0.255607 1
4
 0.936292 0.252074 0.252074 1
4
 0.937813 0.251264 0.251264 1
4
 0.942544 0.257059 0.257059 1
4
 0.944326 0.264616 0.264616 1
4
 0.941723 0.260944 0.260944 1
4
 0.944137 0.267424 0.267424 1
4
 0.946822 0.268668 0.268668 1
4
 0.939879 0.261054 0.261054 1
4
 0.943678 0.261951 0.261951 1
4
 0.948766 0.26727 0.26727 1
4
 0.948787 0.269705 0.269705 1
4
 0.945735 0.262893 0.262893 1
4
 0.936873 0.254217 0.254217 1
4
 0.939235 0.258424 0.258424 1
4
 0.943128 0.259245 0.259245 1
4
 1 0.342407 0.342407 0.980851
4
 1 0.346155 0.346155 0.973282
4
 1 0.340831 0.340831 0.979828
4
 1 0.340144 0.340144 0.97801
4
 1 0.342389 0.342389 0.975043
4
 1 0.338749 0.338749 0.983947
4
 1 0.339039 0.339039 0.98774
4
 1 0.335014 0.335014 0.990267
4
 1 0.335909 0.335909 0.987191
4
 1 0.344023 0.344023 0.971587
4
 1 0.348951 0.348951 0.966739
4
 1 0.33651 0.33651 0.981097
4
 1 0.334363 0.334363 0.986161
4
 1 0.333195 0.333195 0.984681
4
 1 0.338048 0.338048 0.976306
4
 1 0.331196 0.331196 0.981746
4
 1 0.332523 0.332523 0.982854
4
 1 0.333512 0.333512 0.978119
4
 1 0.340808 0.340808 0.970766
4
 1 0.335713 0.335713 0.975152
4
 1 0.336584 0.336584 0.993108
4
 1 0.333757 0.333757 0.993046
4
 1 0.330768 0.330768 0.998985
4
 1 0.33382 0.33382 0.998486
4
 1 0.332588 0.332588 0.995648
4
 0.998232 0.328623 0.328623 1
4
 1 0.327989 0.327989 0.998923
4
 0.993888 0.31979 0.31979 1
4
 0.997609 0.3226 0.3226 1
4
 1 0.330675 0.330675 0.992494
4
 1 0.327508 0.327508 0.995172
4
 1 0.325153 0.325153 0.999048
4
 1 0.295844 0.295844 0.978556
4
 1 0.29403 0.29403 0.983423
4
 1 0.292138 0.292138 0.982645
4
 1 0.298104 0.298104 0.981417
4
 1 0.297902 0.297902 0.979714
4
 1 0.296729 0.296729 0.984439
4
 1 0.300375 0.300375 0.966443
4
 1 0.298117 0.298117 0.965382
4
 1 0.304822 0.304822 0.961998
4
 1 0.297752 0.297752 0.972785
4
 1 0.294652 0.294652 0.974927
4
 1 0.292339 0.292339 0.980308
4
 1 0.300526 0.300526 0.973327
4
 1 0.298107 0.298107 0.977383
4
 1 0.296348 0.296348 0.971489
4
 1 0.297214 0.297214 0.968291
4
 1 0.302946 0.302946 0.967523
4
 1 0.302256 0.302256 0.969894
4
 1 0.29412 0.29412 0.970423
4
 1 0.290607 0.290607 0.975143
4
 1 0.289299 0.289299 0.978429
4
 1 0.290961 0.290961 0.979002
4
 1 0.291456 0.291456 0.971932
4
 1 0.292275 0.292275 0.968452
4
 1 0.28527 0.28527 0.97733
4
 1 0.288784 0.288784 0.973162
4
 1 0.286679 0.286679 0.97995
4
 1 0.283915 0.283915 0.980806
4
 1 0.286071 0.286071 0.97383
4
 1 0.28359 0.28359 0.974698
4
 1 0.281248 0.281248 0.981479
4
 1 0.287084 0.287084 0.970542
4
 1 0.314644 0.314644 0.964413
4
 1 0.311068 0.311068 0.969764
4
 1 0.310967 0.310967 0.972176
4
 1 0.316499 0.316499 0.967757
4
 1 0.319191 0.319191 0.963101
4
 1 0.31527 0.31527 0.959749
4
 1 0.311231 0.311231 0.96145
4
 1 0.312211 0.312211 0.95884
4
 1 0.319699 0.319699 0.95587
4
 1 0.310444 0.310444 0.963986
4
 1 0.309737 0.309737 0.966349
4
 1 0.3109 0.3109 0.96762
4
 1 0.318891 0.318891 0.958392
4
 1 0.319019 0.319019 0.960972
4
 1 0.282637 0.282637 0.984111
4
 1 0.287028 0.287028 0.983828
4
 1 0.283717 0.283717 0.987202
4
 1 0.281224 0.281224 0.987796
4
 1 0.290546 0.290546 0.985184
4
 1 0.295112 0.295112 0.986982
4
 1 0.290016 0.290016 0.988742
4
 1 0.292194 0.292194 0.988028
4
 1 0.278513 0.278513 0.988659
4
 1 0.28815 0.28815 0.98796
4
 1 0.285346 0.285346 0.98778
4
 1 0.305769 0.305769 0.968061
4
 1 0.307432 0.307432 0.963073
4
 1 0.306218 0.306218 0.971711
4
 1 0.302617 0.302617 0.974479
4
 1 0.303959 0.303959 0.977457
4
 1 0.300384 0.300384 0.980241
4
 1 0.299201 0.299201 0.984968
4
 1 0.30386 0.30386 0.979888
4
 1 0.303753 0.303753 0.975761
4
 1 0.307268 0.307268 0.97541
4
 0.939695 0.266483 0.266483 1
4
 0.940561 0.270018 0.270018 1
4
 0.942887 0.27377 0.27377 1
4
 0.945711 0.275693 0.275693 1
4
 0.944169 0.271088 0.271088 1
4
 0.937828 0.265644 0.265644 1
4
 0.941425 0.266696 0.266696 1
4
 0.934529 0.257718 0.257718 1
4
 0.93718 0.260344 0.260344 1
4
 0.941013 0.272908 0.272908 1
4
 0.946973 0.286283 0.286283 1
4
 0.949611 0.292958 0.292958 1
4
 0.950467 0.289631 0.289631 1
4
 0.952214 0.294398 0.294398 1
4
 0.944518 0.279883 0.279883 1
4
 0.949185 0.286412 0.286412 1
4
 0.947346 0.281848 0.281848 1
4
 0.95358 0.297914 0.297914 1
4
 0.946166 0.278644 0.278644 1
4
 0.967458 0.274346 0.274346 1
4
 0.965089 0.270326 0.270326 1
4
 0.961841 0.269684 0.269684 1
4
 0.962179 0.267482 0.267482 1
4
 0.962403 0.272499 0.272499 1
4
 0.968729 0.277961 0.277961 1
4
 0.965674 0.275637 0.275637 1
4
 0.967536 0.271797 0.271797 1
4
 0.969644 0.272775 0.272775 1
4
 0.971185 0.279474 0.279474 1
4
 0.972634 0.277654 0.277654 1
4
 0.967269 0.268779 0.268779 1
4
 0.962256 0.264998 0.264998 1
4
 0.965063 0.265211 0.265211 1
4
 0.970506 0.268457 0.268457 1
4
 0.967165 0.266166 0.266166 1
4
 0.97208 0.271782 0.271782 1
4
 0.972366 0.274571 0.274571 1
4
 0.964021 0.289508 0.289508 1
4
 0.967269 0.291797 0.291797 1
4
 0.964634 0.284329 0.284329 1
4
 0.96992 0.293231 0.293231 1
4
 0.968186 0.289239 0.289239 1
4
 0.961962 0.283481 0.283481 1
4
 0.962181 0.285916 0.285916 1
4
 0.965945 0.293351 0.293351 1
4
 0.96428 0.294373 0.294373 1
4
 0.960492 0.290361 0.290361 1
4
 0.960864 0.287438 0.287438 1
4
 0.970789 0.299045 0.299045 1
4
 0.967529 0.2967 0.2967 1
4
 0.971856 0.297123 0.297123 1
4
 0.969116 0.300087 0.300087 1
4
 0.97115 0.303991 0.303991 1
4
 0.975233 0.307145 0.307145 1
4
 0.97345 0.300515 0.300515 1
4
 0.975822 0.305276 0.305276 1
4
 0.967888 0.301606 0.301606 1
4
 0.962067 0.293675 0.293675 1
4
 0.964592 0.298459 0.298459 1
4
 1 0.309112 0.309112 0.983116
4
 1 0.312086 0.312086 0.981974
4
 1 0.306309 0.306309 0.988708
4
 1 0.306297 0.306297 0.986154
4
 1 0.31303 0.31303 0.983064
4
 1 0.310221 0.310221 0.978297
4
 1 0.311152 0.311152 0.980134
4
 1 0.30538 0.30538 0.984306
4
 1 0.307677 0.307677 0.979553
4
 1 0.313206 0.313206 0.977161
4
 1 0.309708 0.309708 0.976582
4
 1 0.315217 0.315217 0.972143
4
 1 0.315096 0.315096 0.980082
4
 1 0.316163 0.316163 0.973968
4
 0.974402 0.311487 0.311487 1
4
 0.978499 0.314719 0.314719 1
4
 0.975617 0.315069 0.315069 1
4
 0.973998 0.3087 0.3087 1
4
 0.97113 0.309044 0.309044 1
4
 0.966616 0.302341 0.302341 1
4
 0.978684 0.310006 0.310006 1
4
 0.967822 0.305818 0.305818 1
4
 0.968352 0.309604 0.309604 1
4
 1 0.343958 0.343958 0.948051
4
 1 0.342002 0.342002 0.946771
4
 1 0.350938 0.350938 0.943424
4
 1 0.348589 0.348589 0.946745
4
 1 0.341468 0.341468 0.953203
4
 1 0.338134 0.338134 0.957695
4
 1 0.340626 0.340626 0.95746
4
 1 0.346065 0.346065 0.95189
4
 1 0.331425 0.331425 0.96092
4
 1 0.330562 0.330562 0.958483
4
 1 0.328766 0.328766 0.964186
4
 1 0.325759 0.325759 0.964668
4
 1 0.325963 0.325963 0.960622
4
 1 0.339257 0.339257 0.949989
4
 1 0.337867 0.337867 0.955757
4
 1 0.336987 0.336987 0.953333
4
 1 0.345791 0.345791 0.949963
4
 1 0.33507 0.33507 0.952046
4
 1 0.333453 0.333453 0.950502
4
 1 0.333696 0.333696 0.957826
4
 1 0.337034 0.337034 0.960025
4
 1 0.331883 0.331883 0.963525
4
 1 0.331221 0.331221 0.953848
4
 1 0.328196 0.328196 0.957529
4
 1 0.344939 0.344939 0.954205
4
 1 0.341781 0.341781 0.958621
4
 1 0.335631 0.335631 0.964096
4
 1 0.33433 0.33433 0.963288
4
 1 0.358284 0.358284 0.941892
4
 1 0.355886 0.355886 0.945208
4
 1 0.358761 0.358761 0.945893
4
 1 0.352808 0.352808 0.945326
4
 1 0.347238 0.347238 0.953044
4
 1 0.353278 0.353278 0.949342
4
 0.950841 0.285145 0.285145 1
4
 0.954439 0.294531 0.294531 1
4
 0.956329 0.294125 0.294125 1
4
 0.953924 0.289335 0.289335 1
4
 0.951119 0.280801 0.280801 1
4
 0.947452 0.275913 0.275913 1
4
 0.952075 0.284725 0.284725 1
4
 0.960277 0.302987 0.302987 1
4
 0.958087 0.298965 0.298965 1
4
 0.952839 0.251424 0.251424 1
4
 0.9502 0.250674 0.250674 1
4
 0.945289 0.244447 0.244447 1
4
 0.946919 0.24741 0.24741 1
4
 0.955843 0.262982 0.262982 1
4
 0.959018 0.264368 0.264368 1
4
 0.955847 0.265633 0.265633 1
4
 0.959241 0.269326 0.269326 1
4
 0.958177 0.25898 0.25898 1
4
 0.95435 0.255027 0.255027 1
4
 0.959658 0.256554 0.256554 1
4
 0.960972 0.259189 0.259189 1
4
 0.956179 0.260835 0.260835 1
4
 0.95236 0.256854 0.256854 1
4
 0.949841 0.258355 0.258355 1
4
 0.949802 0.256267 0.256267 1
4
 0.953017 0.262083 0.262083 1
4
 0.955523 0.258208 0.258208 1
4
 0.962153 0.262421 0.262421 1
4
 0.949151 0.253686 0.253686 1
4
 0.94842 0.250956 0.250956 1
4
 1 0.345624 0.345624 0.960659
4
 1 0.342087 0.342087 0.964808
4
 1 0.343448 0.343448 0.959443
4
 1 0.338704 0.338704 0.965831
4
 1 0.337267 0.337267 0.964923
4
 1 0.351843 0.351843 0.95758
4
 1 0.349265 0.349265 0.961768
4
 1 0.344868 0.344868 0.96403
4
 1 0.346239 0.346239 0.958669
4
 1 0.352262 0.352262 0.954945
4
 1 0.352682 0.352682 0.959458
4
 1 0.355709 0.355709 0.952651
4
 1 0.34569 0.34569 0.965922
4
 1 0.336235 0.336235 0.972568
4
 1 0.337962 0.337962 0.969221
4
 1 0.350043 0.350043 0.953735
4
 1 0.337868 0.337868 0.962924
4
 0.930502 0.238918 0.238918 1
4
 0.929055 0.240085 0.240085 1
4
 0.936465 0.24582 0.24582 1
4
 0.935106 0.243152 0.243152 1
4
 0.934029 0.24543 0.24543 1
4
 0.930466 0.243122 0.243122 1
4
 0.92109 0.228326 0.228326 1
4
 0.922964 0.227356 0.227356 1
4
 0.925485 0.233327 0.233327 1
4
 0.927369 0.232335 0.232335 1
4
 0.927221 0.236713 0.236713 1
4
 0.930627 0.236018 0.236018 1
4
 0.933261 0.239737 0.239737 1
4
 0.924193 0.230131 0.230131 1
4
 0.924046 0.234467 0.234467 1
4
 0.929328 0.232785 0.232785 1
4
 0.929637 0.231106 0.231106 1
4
 0.927185 0.240879 0.240879 1
4
 0.988739 0.297938 0.297938 1
4
 0.990577 0.29789 0.29789 1
4
 0.992446 0.303586 0.303586 1
4
 0.995958 0.306414 0.306414 1
4
 0.994892 0.301691 0.301691 1
4
 0.983592 0.291094 0.291094 1
4
 0.985421 0.291047 0.291047 1
4
 0.984294 0.287663 0.287663 1
4
 0.979994 0.287453 0.287453 1
4
 0.980995 0.283842 0.283842 1
4
 0.978726 0.283442 0.283442 1
4
 0.986918 0.294729 0.294729 1
4
 0.988779 0.300365 0.300365 1
4
 0.981483 0.29109 0.29109 1
4
 0.984961 0.296763 0.296763 1
4
 0.990961 0.294892 0.294892 1
4
 0.987622 0.291255 0.291255 1
4
 0.993059 0.298441 0.298441 1
4
 1 0.319716 0.319716 0.987416
4
 1 0.319827 0.319827 0.984212
4
 1 0.324397 0.324397 0.984095
4
 1 0.326665 0.326665 0.98046
4
 1 0.323605 0.323605 0.980382
4
 1 0.313947 0.313947 0.994578
4
 1 0.311299 0.311299 0.999385
4
 0.999544 0.306689 0.306689 1
4
 1 0.309839 0.309839 0.99729
4
 1 0.317376 0.317376 0.987659
4
 1 0.321911 0.321911 0.987542
4
 1 0.318804 0.318804 0.992483
4
 1 0.314589 0.314589 0.995664
4
 1 0.313114 0.313114 0.993576
4
 1 0.313487 0.313487 0.990842
4
 1 0.313596 0.313596 0.987627
4
 1 0.321237 0.321237 0.980623
4
 1 0.316767 0.316767 0.982811
4
 1 0.323473 0.323473 0.989146
4
 1 0.327934 0.327934 0.985332
4
 1 0.328908 0.328908 0.980585
4
 0.964924 0.252545 0.252545 1
4
 0.963964 0.254112 0.254112 1
4
 0.972204 0.259097 0.259097 1
4
 0.970993 0.256151 0.256151 1
4
 0.967194 0.256367 0.256367 1
4
 0.970482 0.25932 0.25932 1
4
 0.975051 0.260484 0.260484 1
4
 0.978682 0.267141 0.267141 1
4
 0.978631 0.263784 0.263784 1
4
 0.974538 0.263707 0.263707 1
4
 0.980933 0.267776 0.267776 1
4
 0.977411 0.260784 0.260784 1
4
 0.94664 0.255168 0.255168 1
4
 0.949845 0.260959 0.260959 1
4
 0.947603 0.25991 0.25991 1
4
 0.943638 0.253278 0.253278 1
4
 0.941183 0.252876 0.252876 1
4
 0.945931 0.258708 0.258708 1
4
 0.943599 0.251231 0.251231 1
4
 0.94223 0.248504 0.248504 1
4
 0.945873 0.250382 0.250382 1
4
 0.950772 0.263661 0.263661 1
4
 0.956405 0.268406 0.268406 1
4
 0.955068 0.268872 0.268872 1
4
 0.952813 0.267791 0.267791 1
4
 0.949888 0.265737 0.265737 1
4
 0.946854 0.261386 0.261386 1
4
 0.996612 0.296012 0.296012 1
4
 0.996199 0.293363 0.293363 1
4
 1 0.299751 0.299751 0.996197
4
 1 0.296281 0.296281 0.997031
4
 1 0.300022 0.300022 0.998507
4
 0.999291 0.293728 0.293728 1
4
 0.992763 0.292462 0.292462 1
4
 0.989828 0.291463 0.291463 1
4
 0.995277 0.298654 0.298654 1
4
 0.998041 0.299547 0.299547 1
4
 0.989417 0.288855 0.288855 1
4
 0.988656 0.285746 0.285746 1
4
 0.995431 0.290206 0.290206 1
4
 0.992023 0.287453 0.287453 1
4
 0.985733 0.284769 0.284769 1
4
 0.983187 0.284045 0.284045 1
4
 1 0.328383 0.328383 0.992081
4
 1 0.330401 0.330401 0.987927
4
 1 0.322785 0.322785 0.994426
4
 1 0.327237 0.327237 0.990592
4
 1 0.320857 0.320857 0.998131
4
 1 0.322899 0.322899 0.998632
4
 1 0.324769 0.324769 0.990262
4
 1 0.318438 0.318438 0.997799
4
 1 0.316115 0.316115 0.997281
4
 0.982895 0.274065 0.274065 1
4
 0.979961 0.272154 0.272154 1
4
 0.976948 0.267371 0.267371 1
4
 0.98569 0.275341 0.275341 1
4
 0.983359 0.271496 0.271496 1
4
 0.984833 0.279501 0.279501 1
4
 0.981751 0.275381 0.275381 1
4
 0.987491 0.278606 0.278606 1
4
 0.988187 0.281171 0.281171 1
4
 0.981892 0.277552 0.277552 1
4
 0.982429 0.280988 0.280988 1
4
 0.988329 0.283387 0.283387 1
4
 0.975222 0.270299 0.270299 1
4
 0.975811 0.268655 0.268655 1
4
 0.976803 0.273647 0.273647 1
4
 0.979356 0.276845 0.276845 1
4
 0.958458 0.27261 0.27261 1
4
 0.961861 0.2764 0.2764 1
4
 0.963063 0.275272 0.275272 1
4
 0.960516 0.27688 0.27688 1
4
 0.95418 0.270989 0.270989 1
4
 0.957856 0.276055 0.276055 1
4
 0.967476 0.285578 0.285578 1
4
 0.965131 0.279583 0.279583 1
4
 0.961256 0.279893 0.279893 1
4
 0.967518 0.283468 0.283468 1
4
 0.951273 0.271362 0.271362 1
4
 0.948212 0.264508 0.264508 1
4
 0.954915 0.273938 0.273938 1
4
 1 0.293696 0.293696 0.99201
4
 1 0.292627 0.292627 0.995083
4
 1 0.288624 0.288624 0.99378
4
 1 0.28634 0.28634 0.997447
4
 1 0.290792 0.290792 0.993062
4
 1 0.290312 0.290312 0.998755
4
 1 0.287552 0.287552 0.999151
4
 1 0.300201 0.300201 0.987675
4
 1 0.296737 0.296737 0.991061
4
 1 0.302459 0.302459 0.982905
4
 1 0.294876 0.294876 0.989049
4
 1 0.302611 0.302611 0.989906
4
 1 0.29912 0.29912 0.9933
4
 1 0.302897 0.302897 0.99477
4
 1 0.306167 0.306167 0.99164
4
 1 0.309263 0.309263 0.986804
4
 1 0.299108 0.299108 0.990734
4
 1 0.304875 0.304875 0.98258
4
 1 0.293318 0.293318 0.997799
4
 0.976895 0.303314 0.303314 1
4
 0.972778 0.294519 0.294519 1
4
 0.978811 0.303186 0.303186 1
4
 0.976067 0.298197 0.298197 1
4
 0.981196 0.30799 0.30799 1
4
 0.974322 0.294137 0.294137 1
4
 0.974482 0.291609 0.291609 1
4
 0.971081 0.288364 0.288364 1
4
 0.980365 0.302793 0.302793 1
4
 0.986583 0.311025 0.311025 1
4
 0.983218 0.304707 0.304707 1
4
 0.977777 0.29525 0.29525 1
4
 0.980461 0.299693 0.299693 1
4
 0.955762 0.285304 0.285304 1
4
 0.949568 0.27611 0.27611 1
4
 0.952268 0.277395 0.277395 1
4
 0.956133 0.282433 0.282433 1
4
 0.954202 0.284928 0.284928 1
4
 0.960803 0.294391 0.294391 1
4
 0.958659 0.286757 0.286757 1
4
 0.956723 0.289291 0.289291 1
4
 0.948597 0.272567 0.272567 1
4
 0.941642 0.264842 0.264842 1
4
 0.963851 0.302889 0.302889 1
4
 0.961653 0.298869 0.298869 1
4
 0.959234 0.294003 0.294003 1
4
 0.954937 0.276434 0.276434 1
4
 0.955155 0.278808 0.278808 1
4
 0.932903 0.23477 0.23477 1
4
 0.935098 0.238322 0.238322 1
4
 0.935232 0.240201 0.240201 1
4
 0.939241 0.246663 0.246663 1
4
 0.938159 0.248974 0.248974 1
4
 0.935409 0.236604 0.236604 1
4
 0.936612 0.235186 0.235186 1
4
 0.937744 0.242078 0.242078 1
4
 0.939749 0.240986 0.240986 1
4
 0.941369 0.243907 0.243907 1
4
 0.941505 0.24583 0.24583 1
4
 0.993763 0.316985 0.316985 1
4
 0.990385 0.311958 0.311958 1
4
 0.986679 0.307841 0.307841 1
4
 0.995481 0.311018 0.311018 1
4
 0.995999 0.30891 0.30891 1
4
 0.9916 0.307878 0.307878 1
4
 0.988653 0.302389 0.302389 1
4
 0.999004 0.313915 0.313915 1
4
 0.997985 0.317908 0.317908 1
4
 0.994592 0.312866 0.312866 1
4
 0.994094 0.314699 0.314699 1
4
 0.987008 0.305621 0.305621 1
4
 0.98777 0.304186 0.304186 1
4
 1 0.278008 0.278008 0.995562
4
 0.997928 0.274741 0.274741 1
4
 1 0.277066 0.277066 0.998459
4
 1 0.275566 0.275566 0.996161
4
 0.996108 0.271521 0.271521 1
4
 1 0.284825 0.284825 0.991348
4
 1 0.285347 0.285347 0.995187
4
 1 0.28386 0.28386 0.994233
4
 1 0.289783 0.289783 0.990813
4
 1 0.281098 0.281098 0.994052
4
 1 0.279577 0.279577 0.991764
4
 0.998485 0.279406 0.279406 1
4
 1 0.281614 0.281614 0.997901
4
 0.995588 0.277651 0.277651 1
4
 0.996764 0.28038 0.28038 1
4
 0.999435 0.284127 0.284127 1
4
 0.999444 0.278217 0.278217 1
4
 0.994019 0.272228 0.272228 1
4
 0.992946 0.273727 0.273727 1
4
 0.988421 0.266508 0.266508 1
4
 0.991135 0.270519 0.270519 1
4
 0.982824 0.264045 0.264045 1
4
 0.985522 0.268018 0.268018 1
4
 0.983308 0.268084 0.268084 1
4
 0.987354 0.267975 0.267975 1
4
 0.991234 0.27468 0.27468 1
4
 0.98784 0.272074 0.272074 1
4
 1 0.303106 0.303106 0.999846
4
 1 0.306015 0.306015 0.999449
4
 1 0.30608 0.30608 0.996681
4
 1 0.306444 0.306444 0.993939
4
 1 0.309385 0.309385 0.993544
4
 1 0.312885 0.312885 0.985979
4
 0.96893 0.262526 0.262526 1
4
 0.969516 0.260929 0.260929 1
4
 0.964276 0.257639 0.257639 1
4
 0.972224 0.265549 0.265549 1
4
 0.966969 0.262202 0.262202 1
4
 0.968292 0.264894 0.264894 1
4
 0.973213 0.270484 0.270484 1
4
 0.963641 0.259963 0.259963 1
4
 0.969394 0.28079 0.28079 1
4
 0.975173 0.285295 0.285295 1
4
 0.973911 0.281314 0.281314 1
4
 0.975195 0.287895 0.287895 1
4
 0.971792 0.284691 0.284691 1
4
 0.968727 0.282311 0.282311 1
4
 0.976628 0.283437 0.283437 1
4
 0.977915 0.290068 0.290068 1
4
 0.981358 0.293051 0.293051 1
4
 0.940958 0.239542 0.239542 1
4
 0.943517 0.244721 0.244721 1
4
 1 0.33291 0.33291 0.9736
4
 1 0.328105 0.328105 0.976885
4
 1 0.333201 0.333201 0.969335
4
 1 0.329791 0.329791 0.973522
4
 1 0.328392 0.328392 0.972606
4
 1 0.330501 0.330501 0.967612
4
 1 0.327209 0.327209 0.970865
4
 1 0.32386 0.32386 0.975058
4
 1 0.320509 0.320509 0.978986
4
 1 0.32594 0.32594 0.970051
4
 1 0.326209 0.326209 0.967283
4
 1 0.322959 0.322959 0.970536
4
 1 0.319354 0.319354 0.977234
4
 1 0.320435 0.320435 0.971137
4
 1 0.3207 0.3207 0.968366
4
 1 0.323428 0.323428 0.963707
4
 0.977338 0.277035 0.277035 1
4
 0.975077 0.276644 0.276644 1
4
 0.977625 0.279877 0.279877 1
4
 0.932393 0.251759 0.251759 1
4
 0.934744 0.255926 0.255926 1
4
 0.934201 0.24938 0.24938 1
4
 0.930637 0.247035 0.247035 1
4
 0.935038 0.254324 0.254324 1
4
 0.932149 0.246242 0.246242 1
4
 0.958812 0.281455 0.281455 1
4
 1 0.31712 0.31712 0.975049
4
 1 0.312632 0.312632 0.973391
4
 1 0.3209 0.3209 0.964305
4
 1 0.326481 0.326481 0.953409
4
 1 0.3235 0.3235 0.957089
4
 1 0.326612 0.326612 0.955977
4
 0.962179 0.302569 0.302569 1
4
 0.95757 0.293691 0.293691 1
4
 0.994402 0.285185 0.285185 1
4
 0.995103 0.28781 0.28781 1
4
 0.998126 0.287691 0.287691 1
4
 0.991352 0.278638 0.278638 1
4
 0.990997 0.282479 0.282479 1
4
 0.987957 0.275994 0.275994 1
4
 0.994008 0.282362 0.282362 1
4
 0.989007 0.274747 0.274747 1
4
 0.995064 0.281086 0.281086 1
4
 0.974524 0.289455 0.289455 1
4
 0.980622 0.297116 0.297116 1
4
 0.98138 0.295722 0.295722 1
4
 0.984074 0.300172 0.300172 1
1
 1

